#       time        depth stress_xx stress_yy stress_xy beam
           0          500            0            0            0            0
           0         1500            0            0            0    0.0505956
           0         2500            0            0            0     0.356151
           0         3500            0            0            0            0
           0         4500            0            0            0            0
        1000          500      627.827     -627.827     -39700.4  2.10773e-09
        1000         1500     -61693.4      61693.4      -185978    0.0488208
        1000         2500     -94164.9      94164.9      -573469     0.357775
        1000         3500      860.255     -860.255     -58437.1  0.000140794
        1000         4500      597.458     -597.458     -12967.4  4.03926e-08
